NAME : C107.828937.tour
COMMENT : Cost = 0_828937
COMMENT : Found by LKH [Keld Helsgaun] Wed Sep 13 18:47:32 2017
TYPE : TOUR
DIMENSION : 110
TOUR_SECTION
1
14
18
19
20
16
17
15
13
110
58
56
55
54
57
59
61
60
104
6
4
8
9
11
12
10
7
5
3
2
76
107
21
25
26
28
30
31
29
27
24
23
22
109
82
79
77
72
71
74
78
80
81
103
68
66
64
63
75
73
62
65
69
67
70
108
91
88
87
84
83
85
86
89
90
92
106
99
97
96
95
93
94
98
101
100
102
44
43
42
41
45
47
46
49
52
51
53
50
48
105
33
34
32
36
38
39
40
37
35
-1
EOF
